c 1=o_0 2=o_1 3=o_2 4=o_3 5=&0_0 6=&0_1 7=&0_2 8=&0_3 9=&1_0 10=&1_1 11=&1_2 12=&1_3 13=x_0 14=x_1 15=x_2 16=x_3 17=&3_0 18=&3_1 19=&3_2 20=&3_3 21=&2_0 22=&2_1 23=&2_2 24=&2_3 25=r_0 26=r_1 27=r_2 28=r_3 29=&4_0 30=&4_1 31=&4_2 32=&4_3 
p cnf 32 96
1 2 3 4 0
-1 -2 0
-1 -3 0
-1 -4 0
-2 -3 0
-2 -4 0
-3 -4 0
5 6 7 8 0
-5 -6 0
-5 -7 0
-5 -8 0
-6 -7 0
-6 -8 0
-7 -8 0
-1 6 0
-2 5 0
-3 8 0
-4 7 0
9 10 11 12 0
-9 -10 0
-9 -11 0
-9 -12 0
-10 -11 0
-10 -12 0
-11 -12 0
13 14 15 16 0
-13 -14 0
-13 -15 0
-13 -16 0
-14 -15 0
-14 -16 0
-15 -16 0
-13 9 0
13 -9 0
-14 10 0
14 -10 0
-15 11 0
15 -11 0
-16 12 0
16 -12 0
-5 9 0
5 -9 0
-6 10 0
6 -10 0
-7 11 0
7 -11 0
-8 12 0
8 -12 0
17 18 19 20 0
-17 -18 0
-17 -19 0
-17 -20 0
-18 -19 0
-18 -20 0
-19 -20 0
-13 18 0
-14 18 0
-15 19 0
-16 19 0
21 22 23 24 0
-21 -22 0
-21 -23 0
-21 -24 0
-22 -23 0
-22 -24 0
-23 -24 0
-17 22 0
-18 21 0
-19 24 0
-20 23 0
25 26 27 28 0
-25 -26 0
-25 -27 0
-25 -28 0
-26 -27 0
-26 -28 0
-27 -28 0
29 30 31 32 0
-29 -30 0
-29 -31 0
-29 -32 0
-30 -31 0
-30 -32 0
-31 -32 0
-25 29 0
-26 30 0
-27 31 0
-28 32 0
-21 29 0
21 -29 0
-22 30 0
22 -30 0
-23 31 0
23 -31 0
-24 32 0
24 -32 0
